Results/Experiment 1 Results/Existing Benchmark/RES_20/i-20-25-5.txt
solutions: 1 nodes: 1  modelTime: 175  solveTime: 16  totalTime: 193  modelSize: 7358  readTime: 2 matchingSize: 9
