Results/Experiment 2 Results/Existing Benchmark/i-20-25-5.lp
clingo version 5.4.0
Reading from tempSRTISolver.lp ...
Solving...
Answer: 1
matched(9,1) matched(13,2) matched(7,3) matched(19,4) matched(18,5) matched(14,6) matched(3,7) matched(15,8) matched(1,9) matched(16,10) matched(20,11) matched(2,13) matched(6,14) matched(8,15) matched(10,16) matched(5,18) matched(4,19) matched(11,20) aSingle(12) aSingle(17)
Optimization: 38
OPTIMUM FOUND

Models       : 1
  Optimum    : yes
Optimization : 38
Calls        : 1
Time         : 0.005s (Solving: 0.00s 1st Model: 0.00s Unsat: 0.00s)
CPU Time     : 0.004s
